(set-logic QF_LRA)
(set-info :source | SMT-COMP'06 organizers |)
(set-info :smt-lib-version 2.0)
(set-info :category "check")
(set-info :status sat)
(set-info :notes |This benchmark is designed to check if the DP supports bignumbers.|)
(declare-fun x13 () Real)
(declare-fun x2 () Real)
(declare-fun x3 () Real)
(declare-fun x4 () Real)
(declare-fun x5 () Real)
(declare-fun x6 () Real)
(assert (and  (or  (>= x1 8 ) (>= x2 0) (>= x3 (- 7))) (or  (<= x1 100 ) (>= x2 0)) )
(check-sat)
(exit)
